NAME: instance_1079
TYPE: TSP
DIMENSION: 20
EDGE_WEIGHT_TYPE: EUC_2D
NODE_COORD_SECTION
0 73.81 3.08
1 70.44 96.88
2 83.57 78.40
3 17.43 60.50
4 4.90 85.47
5 97.51 26.32
6 76.76 12.42
7 7.87 84.60
8 97.45 19.07
9 57.81 17.21
10 82.98 66.24
11 64.39 24.54
12 66.29 67.39
13 42.20 4.45
14 26.89 40.86
15 12.45 94.88
16 7.86 77.23
17 38.35 94.09
18 96.94 58.81
19 33.90 46.99
EOF
